30
1 0 5
2 0 15
2 1 1
3 0 11
3 1 9
3 2 3
4 0 2
4 1 15
4 2 5
4 3 1
5 0 6
5 1 7
5 2 6
5 3 2
5 4 7
6 0 5
6 1 5
6 2 2
6 3 12
6 4 7
6 5 13
7 0 8
7 1 2
7 2 10
7 3 1
7 4 9
7 5 9
7 6 8
8 0 8
8 1 10
8 2 4
8 3 7
8 4 4
8 5 9
8 6 9
8 7 8
9 0 13
9 1 10
9 2 12
9 3 8
9 4 7
9 5 1
9 6 14
9 7 14
9 8 9
10 0 10
10 1 2
10 2 14
10 3 12
10 4 2
10 5 9
10 6 7
10 7 13
10 8 11
10 9 12
11 0 10
11 1 13
11 2 3
11 3 12
11 4 14
11 5 13
11 6 3
11 7 4
11 8 2
11 9 15
11 10 7
12 0 10
12 1 15
12 2 3
12 3 14
12 4 15
12 5 15
12 6 2
12 7 9
12 8 2
12 9 1
12 10 15
12 11 11
13 0 3
13 1 1
13 2 14
13 3 9
13 4 13
13 5 8
13 6 8
13 7 7
13 8 3
13 9 11
13 10 6
13 11 4
13 12 15
14 0 12
14 1 9
14 2 13
14 3 14
14 4 13
14 5 13
14 6 13
14 7 13
14 8 8
14 9 7
14 10 10
14 11 10
14 12 11
14 13 5
15 0 11
15 1 10
15 2 13
15 3 11
15 4 5
15 5 5
15 6 10
15 7 4
15 8 10
15 9 6
15 10 2
15 11 4
15 12 13
15 13 8
15 14 8
16 0 15
16 1 11
16 2 6
16 3 4
16 4 12
16 5 13
16 6 10
16 7 6
16 8 3
16 9 9
16 10 14
16 11 4
16 12 12
16 13 13
16 14 8
16 15 4
17 0 15
17 1 13
17 2 1
17 3 4
17 4 10
17 5 13
17 6 11
17 7 13
17 8 4
17 9 15
17 10 9
17 11 15
17 12 13
17 13 1
17 14 3
17 15 14
17 16 11
18 0 2
18 1 6
18 2 14
18 3 2
18 4 12
18 5 13
18 6 6
18 7 2
18 8 12
18 9 12
18 10 7
18 11 8
18 12 11
18 13 15
18 14 13
18 15 13
18 16 6
18 17 4
19 0 9
19 1 8
19 2 6
19 3 5
19 4 4
19 5 3
19 6 3
19 7 15
19 8 9
19 9 4
19 10 8
19 11 14
19 12 13
19 13 9
19 14 14
19 15 6
19 16 14
19 17 6
19 18 6
20 0 1
20 1 12
20 2 11
20 3 1
20 4 15
20 5 15
20 6 7
20 7 4
20 8 6
20 9 14
20 10 13
20 11 10
20 12 14
20 13 7
20 14 13
20 15 4
20 16 8
20 17 9
20 18 7
20 19 4
21 0 10
21 1 15
21 2 14
21 3 11
21 4 15
21 5 8
21 6 9
21 7 7
21 8 14
21 9 13
21 10 15
21 11 11
21 12 14
21 13 8
21 14 15
21 15 8
21 16 5
21 17 12
21 18 8
21 19 5
21 20 15
22 0 8
22 1 9
22 2 4
22 3 4
22 4 12
22 5 2
22 6 11
22 7 8
22 8 2
22 9 7
22 10 4
22 11 12
22 12 4
22 13 10
22 14 6
22 15 13
22 16 9
22 17 12
22 18 15
22 19 10
22 20 1
22 21 4
23 0 3
23 1 5
23 2 12
23 3 2
23 4 12
23 5 14
23 6 10
23 7 5
23 8 13
23 9 14
23 10 4
23 11 13
23 12 15
23 13 2
23 14 9
23 15 10
23 16 3
23 17 1
23 18 7
23 19 6
23 20 12
23 21 7
23 22 10
24 0 8
24 1 6
24 2 9
24 3 9
24 4 3
24 5 7
24 6 8
24 7 4
24 8 8
24 9 10
24 10 4
24 11 11
24 12 3
24 13 2
24 14 7
24 15 10
24 16 10
24 17 11
24 18 5
24 19 4
24 20 9
24 21 9
24 22 4
24 23 11
25 0 9
25 1 1
25 2 10
25 3 11
25 4 11
25 5 8
25 6 11
25 7 10
25 8 3
25 9 15
25 10 9
25 11 12
25 12 14
25 13 2
25 14 10
25 15 15
25 16 14
25 17 1
25 18 14
25 19 14
25 20 6
25 21 1
25 22 3
25 23 6
25 24 13
26 0 11
26 1 5
26 2 3
26 3 9
26 4 4
26 5 15
26 6 1
26 7 3
26 8 4
26 9 9
26 10 6
26 11 14
26 12 9
26 13 8
26 14 4
26 15 11
26 16 9
26 17 14
26 18 8
26 19 3
26 20 13
26 21 6
26 22 8
26 23 11
26 24 3
26 25 14
27 0 15
27 1 15
27 2 4
27 3 10
27 4 1
27 5 11
27 6 14
27 7 14
27 8 6
27 9 14
27 10 4
27 11 7
27 12 1
27 13 9
27 14 5
27 15 12
27 16 8
27 17 10
27 18 7
27 19 14
27 20 7
27 21 10
27 22 2
27 23 1
27 24 12
27 25 6
27 26 12
28 0 6
28 1 7
28 2 2
28 3 14
28 4 15
28 5 1
28 6 8
28 7 6
28 8 3
28 9 6
28 10 10
28 11 5
28 12 5
28 13 13
28 14 10
28 15 6
28 16 8
28 17 8
28 18 2
28 19 9
28 20 3
28 21 9
28 22 10
28 23 2
28 24 2
28 25 13
28 26 1
28 27 9
29 0 1
29 1 9
29 2 14
29 3 14
29 4 10
29 5 9
29 6 5
29 7 14
29 8 3
29 9 3
29 10 7
29 11 7
29 12 6
29 13 12
29 14 8
29 15 1
29 16 12
29 17 4
29 18 4
29 19 6
29 20 1
29 21 15
29 22 14
29 23 3
29 24 6
29 25 13
29 26 13
29 27 13
29 28 3
